proyfinal/src/viki/013/andrea/andrea-localstore/experimentInOfficeAgust.take6/worker_4/9f6e3aa9-4bdd-4c9c-8843-d520bff435e3.als.cnf.out
Reading from standard input... Use '--help' for help.
============================[ Problem Statistics ]=============================
|                                                                             |
|  Number of variables:         87638                                         |
|  Number of clauses:          161767                                         |
|  Parse time:                   0.03 s                                       |
|                                                                             |
============================[ Search Statistics ]==============================
| Conflicts |          ORIGINAL         |          LEARNT          | Progress |
|           |    Vars  Clauses Literals |    Limit  Clauses Lit/Cl |          |
===============================================================================
|       100 |   63379   109067   271785 |    39991      100     13 | 27.681 % |
|       250 |   63379   109067   271785 |    43990      250     13 | 27.681 % |
|       475 |   63379   109067   271785 |    48389      475     26 | 27.681 % |
|       812 |   63379   109067   271785 |    53228      812     30 | 27.681 % |
|      1318 |   63379   109067   271785 |    58551     1318     65 | 27.681 % |
|      2077 |   63378   109064   271779 |    64406     2076     70 | 27.682 % |
|      3216 |   63378   109064   271779 |    70846     3215     73 | 27.682 % |
|      4924 |   58511    93200   232590 |    77931     4900     71 | 33.236 % |
|      7486 |   58511    93192   232574 |    85724     7462     78 | 33.236 % |
|     11330 |   58480    93061   232265 |    94297    11296     78 | 33.271 % |
|     17096 |   58304    92234   230339 |   103726    15739     78 | 33.472 % |
===============================================================================
restarts              : 70
conflicts             : 20145          (8310 /sec)
decisions             : 66952          (0.00 % random) (27618 /sec)
propagations          : 24416260       (10071987 /sec)
conflict literals     : 1461629        (47.98 % deleted)
Memory used           : 39.48 MB
CPU time              : 2.42417 s

UNSATISFIABLE
